50

100 14 303
96 38 415
94 30 303
93 14 435
91 40 317
91 8 289
91 21 373
88 41 406
84 9 358
83 37 359
80 29 244
78 9 273
78 22 418
76 30 398
75 38 257
74 6 302
72 27 389
72 15 315
70 19 403
65 12 366
61 9 243
60 6 353
56 4 324
52 1 412
51 15 436
51 4 299
48 15 317
46 21 314
45 6 265
38 1 439
38 17 408
37 3 376
37 11 344
37 13 448
36 8 165
35 11 434
35 5 120
32 12 182
32 11 424
31 13 248
30 1 137
29 5 444
29 8 227
28 7 430
27 6 387
27 7 172
23 9 287
23 1 139
22 9 230
21 7 386
